(declare-const %701 (_ BitVec 64))
(declare-const %700 (_ BitVec 64))
(declare-const %703 (_ BitVec 64))
(declare-const %702 (_ BitVec 8))
(declare-const %705 (_ BitVec 64))
(declare-const %704 (_ BitVec 64))
(declare-const %707 (_ BitVec 53))
(declare-const %706 (_ BitVec 64))
(declare-const %709 (_ BitVec 64))
(declare-const %708 (_ BitVec 1))
(declare-const tmp_dword!19 (_ BitVec 64))
(declare-const tmp_dword!18 (_ BitVec 64))
(declare-const tmp_dword!17 (_ BitVec 64))
(declare-const tmp_dword!16 (_ BitVec 64))
(declare-const tmp_dword!2 (_ BitVec 64))
(declare-const %710 (_ BitVec 1))
(declare-const %712 (_ BitVec 64))
(declare-const %711 (_ BitVec 64))
(declare-const %713 (_ BitVec 64))
(declare-const tmp_dword!9 (_ BitVec 64))
(declare-const tmp_dword!8 (_ BitVec 64))
(declare-const tmp_dword!7 (_ BitVec 64))
(declare-const tmp_dword!6 (_ BitVec 64))
(declare-const tmp_dword!5 (_ BitVec 64))
(declare-const tmp_dword!4 (_ BitVec 64))
(declare-const tmp_dword!3 (_ BitVec 64))
(declare-const tmp_dword1!57 (_ BitVec 64))
(declare-const tmp_dword1!53 (_ BitVec 64))
(declare-const tmp_dword1!54 (_ BitVec 64))
(declare-const tmp_dword1!55 (_ BitVec 64))
(declare-const tmp_dword1!56 (_ BitVec 64))
(declare-const tmp_dword1!50 (_ BitVec 64))
(declare-const tmp_dword1!51 (_ BitVec 64))
(declare-const tmp_dword1!52 (_ BitVec 64))
(declare-const %600 (_ BitVec 64))
(declare-const %602 (_ BitVec 64))
(declare-const %601 (_ BitVec 64))
(declare-const %604 (_ BitVec 64))
(declare-const %603 (_ BitVec 64))
(declare-const %606 (_ BitVec 3))
(declare-const %605 (_ BitVec 53))
(declare-const %608 (_ BitVec 53))
(declare-const %607 (_ BitVec 1))
(declare-const %609 (_ BitVec 64))
(declare-const tmp_dword1!46 (_ BitVec 64))
(declare-const tmp_dword1!47 (_ BitVec 64))
(declare-const tmp_dword1!48 (_ BitVec 64))
(declare-const tmp_dword1!49 (_ BitVec 64))
(declare-const tmp_dword1!43 (_ BitVec 64))
(declare-const tmp_dword1!44 (_ BitVec 64))
(declare-const tmp_dword1!45 (_ BitVec 64))
(declare-const %611 (_ BitVec 3))
(declare-const PC!110 (_ BitVec 64))
(declare-const %610 (_ BitVec 64))
(declare-const %613 (_ BitVec 64))
(declare-const %612 (_ BitVec 1))
(declare-const %615 (_ BitVec 64))
(declare-const %614 (_ BitVec 8))
(declare-const %617 (_ BitVec 64))
(declare-const %616 (_ BitVec 64))
(declare-const PC!88 (_ BitVec 64))
(declare-const %619 (_ BitVec 64))
(declare-const PC!89 (_ BitVec 64))
(declare-const %618 (_ BitVec 64))
(declare-const PC!86 (_ BitVec 64))
(declare-const PC!87 (_ BitVec 64))
(declare-const PC!91 (_ BitVec 64))
(declare-const %622 (_ BitVec 64))
(declare-const PC!92 (_ BitVec 64))
(declare-const %621 (_ BitVec 64))
(declare-const %503 (_ BitVec 64))
(declare-const %624 (_ BitVec 64))
(declare-const %502 (_ BitVec 64))
(declare-const PC!90 (_ BitVec 64))
(declare-const %623 (_ BitVec 64))
(declare-const %505 (_ BitVec 64))
(declare-const %626 (_ BitVec 1))
(declare-const %504 (_ BitVec 64))
(declare-const %625 (_ BitVec 3))
(declare-const %507 (_ BitVec 3))
(declare-const %628 (_ BitVec 16))
(declare-const %506 (_ BitVec 53))
(declare-const %627 (_ BitVec 64))
(declare-const %509 (_ BitVec 64))
(declare-const PC!99 (_ BitVec 64))
(declare-const %508 (_ BitVec 1))
(declare-const %629 (_ BitVec 64))
(declare-const PC!97 (_ BitVec 64))
(declare-const PC!98 (_ BitVec 64))
(declare-const PC!95 (_ BitVec 64))
(declare-const PC!96 (_ BitVec 64))
(declare-const PC!93 (_ BitVec 64))
(declare-const PC!94 (_ BitVec 64))
(declare-const %620 (_ BitVec 56))
(declare-const %512 (_ BitVec 64))
(declare-const %633 (_ BitVec 64))
(declare-const %511 (_ BitVec 64))
(declare-const %632 (_ BitVec 64))
(declare-const %514 (_ BitVec 1))
(declare-const %635 (_ BitVec 64))
(declare-const %513 (_ BitVec 3))
(declare-const %634 (_ BitVec 48))
(declare-const %516 (_ BitVec 8))
(declare-const %637 (_ BitVec 64))
(declare-const %515 (_ BitVec 64))
(declare-const %636 (_ BitVec 64))
(declare-const %518 (_ BitVec 3))
(declare-const %639 (_ BitVec 3))
(declare-const %517 (_ BitVec 56))
(declare-const %638 (_ BitVec 64))
(declare-const %519 (_ BitVec 1))
(declare-const %510 (_ BitVec 53))
(declare-const %631 (_ BitVec 64))
(declare-const %630 (_ BitVec 64))
(declare-const %523 (_ BitVec 3))
(declare-const PC!100 (_ BitVec 64))
(declare-const %644 (_ BitVec 64))
(declare-const %522 (_ BitVec 48))
(declare-const %643 (_ BitVec 64))
(declare-const %525 (_ BitVec 64))
(declare-const %646 (_ BitVec 64))
(declare-const %524 (_ BitVec 1))
(declare-const %645 (_ BitVec 64))
(declare-const %527 (_ BitVec 40))
(declare-const %648 (_ BitVec 40))
(declare-const PC!104 (_ BitVec 64))
(declare-const %526 (_ BitVec 24))
(declare-const %647 (_ BitVec 64))
(declare-const PC!103 (_ BitVec 64))
(declare-const %529 (_ BitVec 1))
(declare-const PC!102 (_ BitVec 64))
(declare-const %528 (_ BitVec 3))
(declare-const PC!101 (_ BitVec 64))
(declare-const %649 (_ BitVec 64))
(declare-const PC!108 (_ BitVec 64))
(declare-const PC!107 (_ BitVec 64))
(declare-const PC!106 (_ BitVec 64))
(declare-const PC!105 (_ BitVec 64))
(declare-const PC!109 (_ BitVec 64))
(declare-const %640 (_ BitVec 1))
(declare-const %521 (_ BitVec 16))
(declare-const %642 (_ BitVec 24))
(declare-const %520 (_ BitVec 64))
(declare-const %641 (_ BitVec 64))
(declare-const %534 (_ BitVec 1))
(declare-const %655 (_ BitVec 64))
(declare-const %533 (_ BitVec 3))
(declare-const %654 (_ BitVec 1))
(declare-const %536 (_ BitVec 40))
(declare-const %657 (_ BitVec 64))
(declare-const %535 (_ BitVec 64))
(declare-const %656 (_ BitVec 32))
(declare-const %538 (_ BitVec 3))
(declare-const %659 (_ BitVec 64))
(declare-const %537 (_ BitVec 24))
(declare-const %658 (_ BitVec 64))
(declare-const %539 (_ BitVec 1))
(declare-const XREG!56 (Array (_ BitVec 5) (_ BitVec 64)))
(declare-const MEM!23 (Array (_ BitVec 53) (_ BitVec 64)))
(declare-const XREG!57 (Array (_ BitVec 5) (_ BitVec 64)))
(declare-const MEM!22 (Array (_ BitVec 53) (_ BitVec 64)))
(declare-const XREG!54 (Array (_ BitVec 5) (_ BitVec 64)))
(declare-const XREG!55 (Array (_ BitVec 5) (_ BitVec 64)))
(declare-const %530 (_ BitVec 64))
(declare-const XREG!52 (Array (_ BitVec 5) (_ BitVec 64)))
(declare-const %651 (_ BitVec 64))
(declare-const XREG!53 (Array (_ BitVec 5) (_ BitVec 64)))
(declare-const %650 (_ BitVec 64))
(declare-const %532 (_ BitVec 32))
(declare-const XREG!50 (Array (_ BitVec 5) (_ BitVec 64)))
(declare-const MEM!21 (Array (_ BitVec 53) (_ BitVec 64)))
(declare-const %653 (_ BitVec 3))
(declare-const %531 (_ BitVec 32))
(declare-const XREG!51 (Array (_ BitVec 5) (_ BitVec 64)))
(declare-const MEM!20 (Array (_ BitVec 53) (_ BitVec 64)))
(declare-const %652 (_ BitVec 64))
(declare-const %545 (_ BitVec 8))
(declare-const %666 (_ BitVec 64))
(declare-const %544 (_ BitVec 56))
(declare-const %665 (_ BitVec 64))
(declare-const %547 (_ BitVec 64))
(declare-const %668 (_ BitVec 1))
(declare-const %546 (_ BitVec 64))
(declare-const %667 (_ BitVec 3))
(declare-const %549 (_ BitVec 64))
(declare-const mem_index!10 (_ BitVec 53))
(declare-const %548 (_ BitVec 64))
(declare-const %669 (_ BitVec 64))
(declare-const XREG!49 (Array (_ BitVec 5) (_ BitVec 64)))
(declare-const XREG!47 (Array (_ BitVec 5) (_ BitVec 64)))
(declare-const XREG!48 (Array (_ BitVec 5) (_ BitVec 64)))
(declare-const XREG!45 (Array (_ BitVec 5) (_ BitVec 64)))
(declare-const XREG!46 (Array (_ BitVec 5) (_ BitVec 64)))
(declare-const %660 (_ BitVec 64))
(declare-const %541 (_ BitVec 48))
(declare-const %662 (_ BitVec 32))
(declare-const %540 (_ BitVec 64))
(declare-const %661 (_ BitVec 64))
(declare-const %543 (_ BitVec 64))
(declare-const %664 (_ BitVec 64))
(declare-const %542 (_ BitVec 16))
(declare-const %663 (_ BitVec 64))
(declare-const %556 (_ BitVec 64))
(declare-const %677 (_ BitVec 64))
(declare-const %555 (_ BitVec 64))
(declare-const %676 (_ BitVec 24))
(declare-const %558 (_ BitVec 1))
(declare-const %679 (_ BitVec 64))
(declare-const %557 (_ BitVec 3))
(declare-const %678 (_ BitVec 64))
(declare-const %559 (_ BitVec 64))
(declare-const prev_pc!30 (_ BitVec 64))
(declare-const %550 (_ BitVec 53))
(declare-const %671 (_ BitVec 64))
(declare-const %670 (_ BitVec 40))
(declare-const %552 (_ BitVec 1))
(declare-const %673 (_ BitVec 64))
(declare-const %551 (_ BitVec 3))
(declare-const %672 (_ BitVec 64))
(declare-const %554 (_ BitVec 53))
(declare-const %675 (_ BitVec 64))
(declare-const %553 (_ BitVec 64))
(declare-const %674 (_ BitVec 64))
(declare-const %567 (_ BitVec 3))
(declare-const prev_pc!36 (_ BitVec 64))
(declare-const %688 (_ BitVec 64))
(declare-const MEM!19 (Array (_ BitVec 53) (_ BitVec 64)))
(declare-const prev_pc!35 (_ BitVec 64))
(declare-const %566 (_ BitVec 48))
(declare-const %687 (_ BitVec 64))
(declare-const %569 (_ BitVec 64))
(declare-const %568 (_ BitVec 1))
(declare-const %689 (_ BitVec 64))
(declare-const prev_pc!32 (_ BitVec 64))
(declare-const prev_pc!31 (_ BitVec 64))
(declare-const prev_pc!34 (_ BitVec 64))
(declare-const prev_pc!33 (_ BitVec 64))
(declare-const tmp_address!8 (_ BitVec 64))
(declare-const tmp_address!9 (_ BitVec 64))
(declare-const %680 (_ BitVec 64))
(declare-const tmp_address!10 (_ BitVec 64))
(declare-const %561 (_ BitVec 56))
(declare-const %682 (_ BitVec 1))
(declare-const %560 (_ BitVec 8))
(declare-const %681 (_ BitVec 3))
(declare-const %563 (_ BitVec 1))
(declare-const %684 (_ BitVec 48))
(declare-const %562 (_ BitVec 3))
(declare-const %683 (_ BitVec 64))
(declare-const %565 (_ BitVec 16))
(declare-const %686 (_ BitVec 64))
(declare-const %564 (_ BitVec 64))
(declare-const %685 (_ BitVec 64))
(declare-const %578 (_ BitVec 1))
(declare-const %699 (_ BitVec 64))
(declare-const %577 (_ BitVec 3))
(declare-const %698 (_ BitVec 64))
(declare-const %579 (_ BitVec 64))
(declare-const rs2_var!8 (_ BitVec 64))
(declare-const tmp_dword2!48 (_ BitVec 64))
(declare-const tmp_dword2!47 (_ BitVec 64))
(declare-const tmp_dword2!49 (_ BitVec 64))
(declare-const tmp_dword2!44 (_ BitVec 64))
(declare-const %570 (_ BitVec 24))
(declare-const %691 (_ BitVec 64))
(declare-const tmp_dword2!43 (_ BitVec 64))
(declare-const %690 (_ BitVec 16))
(declare-const tmp_dword2!46 (_ BitVec 64))
(declare-const %572 (_ BitVec 3))
(declare-const %693 (_ BitVec 64))
(declare-const tmp_dword2!45 (_ BitVec 64))
(declare-const %571 (_ BitVec 40))
(declare-const %692 (_ BitVec 64))
(declare-const %574 (_ BitVec 64))
(declare-const %695 (_ BitVec 64))
(declare-const %573 (_ BitVec 1))
(declare-const %694 (_ BitVec 64))
(declare-const %576 (_ BitVec 32))
(declare-const %697 (_ BitVec 64))
(declare-const %575 (_ BitVec 32))
(declare-const %696 (_ BitVec 56))
(declare-const %589 (_ BitVec 8))
(declare-const %588 (_ BitVec 56))
(declare-const rd_var!3 (_ BitVec 64))
(declare-const rd_var!2 (_ BitVec 64))
(declare-const %581 (_ BitVec 24))
(declare-const %580 (_ BitVec 40))
(declare-const %583 (_ BitVec 1))
(declare-const %582 (_ BitVec 3))
(declare-const %585 (_ BitVec 48))
(declare-const %584 (_ BitVec 64))
(declare-const %587 (_ BitVec 64))
(declare-const %586 (_ BitVec 16))
(declare-const mem_index!9 (_ BitVec 53))
(declare-const tmp_dword!15 (_ BitVec 64))
(declare-const %599 (_ BitVec 64))
(declare-const tmp_dword!14 (_ BitVec 64))
(declare-const tmp_dword!13 (_ BitVec 64))
(declare-const tmp_dword!12 (_ BitVec 64))
(declare-const tmp_dword!11 (_ BitVec 64))
(declare-const tmp_dword!10 (_ BitVec 64))
(declare-const %590 (_ BitVec 64))
(declare-const %592 (_ BitVec 64))
(declare-const %591 (_ BitVec 64))
(declare-const %594 (_ BitVec 64))
(declare-const %593 (_ BitVec 64))
(declare-const %596 (_ BitVec 64))
(declare-const %595 (_ BitVec 64))
(declare-const %598 (_ BitVec 64))
(declare-const %597 (_ BitVec 64))
(declare-const tmp_dword2!55 (_ BitVec 64))
(declare-const tmp_dword2!54 (_ BitVec 64))
(declare-const tmp_dword2!57 (_ BitVec 64))
(declare-const tmp_dword2!56 (_ BitVec 64))
(declare-const tmp_dword2!51 (_ BitVec 64))
(declare-const tmp_dword2!50 (_ BitVec 64))
(declare-const tmp_dword2!53 (_ BitVec 64))
(declare-const mem_index!8 (_ BitVec 53))
(declare-const tmp_dword2!52 (_ BitVec 64))
(assert 
   (=
     XREG!46
     (store XREG!45 #b00000 #b0000000000000000000000000000000000000000000000000000000000000000)))
(assert 
   (= prev_pc!30 PC!86))
(assert 
   (=
     %504
     (select XREG!46 #b01111)))
(assert 
   (=
     %503
     (bvadd %504 #b1111111111111111111111111111111111111111111111111111111111110000)))
(assert 
   (= tmp_address!8 %503))
(assert 
   (=
     %505
     (bvlshr %503 #b0000000000000000000000000000000000000000000000000000000000000011)))
(assert 
   (=
     %506
     ((_ extract 52 0) %505)))
(assert 
   (= mem_index!8 %506))
(assert 
   (=
     %507
     ((_ extract 2 0) %503)))
(assert 
   (=
     %508
     (ite
       (= %507 #b000)
       #b1
       #b0)))
(assert 
   (=
     %509
     (select MEM!19 %506)))
(assert 
   (= tmp_dword!19 %509))
(assert 
   (=
     %510
     (bvadd %506 #b00000000000000000000000000000000000000000000000000001)))
(assert 
   (=
     %511
     (select MEM!19 %510)))
(assert 
   (= tmp_dword1!57 %511))
(assert 
   (=
     %512
     (select MEM!19 %506)))
(assert 
   (= tmp_dword2!57 %512))
(assert 
   (=
     %513
     ((_ extract 2 0) %503)))
(assert 
   (=
     %514
     (ite
       (= %513 #b001)
       #b1
       #b0)))
(assert 
   (=
     tmp_dword!2
     (ite
       (= %508 #b1)
       %509
       (ite
         (= %514 #b1)
         %515
         (ite
           (= %519 #b1)
           %520
           (ite
             (= %524 #b1)
             %525
             (ite
               (= %529 #b1)
               %530
               (ite
                 (= %534 #b1)
                 %535
                 (ite
                   (= %539 #b1)
                   %540
                   %543)))))))))
(assert 
   (=
     tmp_dword2!44
     (ite
       (= %508 #b1)
       tmp_dword2!43
       %512)))
(assert 
   (=
     tmp_dword1!44
     (ite
       (= %508 #b1)
       tmp_dword1!43
       %511)))
(assert 
   (= rd_var!2 tmp_dword!2))
(assert 
   (=
     XREG!47
     (store XREG!46 #b01110 tmp_dword!2)))
(assert 
   (=
     %502
     (bvadd PC!86 #b0000000000000000000000000000000000000000000000000000000000000100)))
(assert 
   (= PC!110 %502))
(assert 
   (= PC!87 %502))
(assert 
   (= PC!88 PC!87))
(assert 
   (=
     XREG!48
     (store XREG!47 #b00000 #b0000000000000000000000000000000000000000000000000000000000000000)))
(assert 
   (= prev_pc!31 PC!87))
(assert 
   (=
     %548
     (select XREG!48 #b01111)))
(assert 
   (=
     %547
     (bvadd %548 #b1111111111111111111111111111111111111111111111111111111111111000)))
(assert 
   (= tmp_address!9 %547))
(assert 
   (=
     %549
     (bvlshr %547 #b0000000000000000000000000000000000000000000000000000000000000011)))
(assert 
   (=
     %550
     ((_ extract 52 0) %549)))
(assert 
   (= mem_index!9 %550))
(assert 
   (=
     %551
     ((_ extract 2 0) %547)))
(assert 
   (=
     %552
     (ite
       (= %551 #b000)
       #b1
       #b0)))
(assert 
   (=
     %516
     ((_ extract 7 0) %511)))
(assert 
   (=
     %517
     ((_ extract 63 8) %512)))
(assert 
   (=
     %515
     (concat %516 %517)))
(assert 
   (= tmp_dword!12 %515))
(assert 
   (=
     %518
     ((_ extract 2 0) %503)))
(assert 
   (=
     %519
     (ite
       (= %518 #b010)
       #b1
       #b0)))
(assert 
   (=
     %521
     ((_ extract 15 0) %511)))
(assert 
   (=
     %522
     ((_ extract 63 16) %512)))
(assert 
   (=
     %520
     (concat %521 %522)))
(assert 
   (= tmp_dword!18 %520))
(assert 
   (=
     %523
     ((_ extract 2 0) %503)))
(assert 
   (=
     %524
     (ite
       (= %523 #b011)
       #b1
       #b0)))
(assert 
   (=
     %526
     ((_ extract 23 0) %511)))
(assert 
   (=
     %527
     ((_ extract 63 24) %512)))
(assert 
   (=
     %525
     (concat %526 %527)))
(assert 
   (= tmp_dword!17 %525))
(assert 
   (=
     %528
     ((_ extract 2 0) %503)))
(assert 
   (=
     %529
     (ite
       (= %528 #b100)
       #b1
       #b0)))
(assert 
   (=
     %553
     (select MEM!19 %550)))
(assert 
   (= tmp_dword!3 %553))
(assert 
   (=
     %554
     (bvadd %550 #b00000000000000000000000000000000000000000000000000001)))
(assert 
   (=
     %555
     (select MEM!19 %554)))
(assert 
   (= tmp_dword1!45 %555))
(assert 
   (=
     %556
     (select MEM!19 %550)))
(assert 
   (= tmp_dword2!45 %556))
(assert 
   (=
     %557
     ((_ extract 2 0) %547)))
(assert 
   (=
     %558
     (ite
       (= %557 #b001)
       #b1
       #b0)))
(assert 
   (=
     %531
     ((_ extract 31 0) %511)))
(assert 
   (=
     %532
     ((_ extract 63 32) %512)))
(assert 
   (=
     %530
     (concat %531 %532)))
(assert 
   (= tmp_dword!16 %530))
(assert 
   (=
     %533
     ((_ extract 2 0) %503)))
(assert 
   (=
     %534
     (ite
       (= %533 #b101)
       #b1
       #b0)))
(assert 
   (=
     tmp_dword!11
     (ite
       (= %552 #b1)
       %553
       (ite
         (= %558 #b1)
         %559
         (ite
           (= %563 #b1)
           %564
           (ite
             (= %568 #b1)
             %569
             (ite
               (= %573 #b1)
               %574
               (ite
                 (= %578 #b1)
                 %579
                 (ite
                   (= %583 #b1)
                   %584
                   %587)))))))))
(assert 
   (=
     tmp_dword2!46
     (ite
       (= %552 #b1)
       tmp_dword2!44
       %556)))
(assert 
   (=
     tmp_dword1!46
     (ite
       (= %552 #b1)
       tmp_dword1!44
       %555)))
(assert 
   (= rd_var!3 tmp_dword!11))
(assert 
   (=
     XREG!49
     (store XREG!48 #b01100 tmp_dword!11)))
(assert 
   (=
     %546
     (bvadd PC!87 #b0000000000000000000000000000000000000000000000000000000000000100)))
(assert 
   (= PC!109 %546))
(assert 
   (= PC!89 %546))
(assert 
   (= PC!90 PC!89))
(assert 
   (=
     XREG!50
     (store XREG!49 #b00000 #b0000000000000000000000000000000000000000000000000000000000000000)))
(assert 
   (= prev_pc!32 PC!89))
(assert 
   (=
     %592
     (select XREG!50 #b01111)))
(assert 
   (=
     %591
     (bvadd %592 #b0000000000000000000000000000000000000000000000000000000000001000)))
(assert 
   (=
     XREG!51
     (store XREG!50 #b01111 %591)))
(assert 
   (=
     %590
     (bvadd PC!89 #b0000000000000000000000000000000000000000000000000000000000000100)))
(assert 
   (= PC!91 %590))
(assert 
   (= PC!92 %590))
(assert 
   (= PC!93 PC!92))
(assert 
   (=
     XREG!52
     (store XREG!51 #b00000 #b0000000000000000000000000000000000000000000000000000000000000000)))
(assert 
   (= prev_pc!33 PC!92))
(assert 
   (=
     %595
     (select XREG!52 #b01101)))
(assert 
   (=
     %594
     (bvadd %595 #b0000000000000000000000000000000000000000000000000000000000000001)))
(assert 
   (=
     XREG!53
     (store XREG!52 #b01101 %594)))
(assert 
   (=
     %593
     (bvadd PC!92 #b0000000000000000000000000000000000000000000000000000000000000100)))
(assert 
   (= PC!94 %593))
(assert 
   (= PC!95 %593))
(assert 
   (= PC!96 PC!95))
(assert 
   (=
     XREG!54
     (store XREG!53 #b00000 #b0000000000000000000000000000000000000000000000000000000000000000)))
(assert 
   (= prev_pc!34 PC!95))
(assert 
   (=
     %598
     (select XREG!54 #b01110)))
(assert 
   (=
     %599
     (select XREG!54 #b01100)))
(assert 
   (=
     %597
     (bvadd %598 %599)))
(assert 
   (=
     XREG!55
     (store XREG!54 #b01110 %597)))
(assert 
   (=
     %596
     (bvadd PC!95 #b0000000000000000000000000000000000000000000000000000000000000100)))
(assert 
   (= PC!97 %596))
(assert 
   (= PC!98 %596))
(assert 
   (= PC!99 PC!98))
(assert 
   (=
     XREG!56
     (store XREG!55 #b00000 #b0000000000000000000000000000000000000000000000000000000000000000)))
(assert 
   (= prev_pc!35 PC!98))
(assert 
   (=
     %602
     (select XREG!56 #b01111)))
(assert 
   (=
     %601
     (bvadd %602 #b1111111111111111111111111111111111111111111111111111111111111000)))
(assert 
   (= tmp_address!10 %601))
(assert 
   (=
     %603
     (select XREG!56 #b01110)))
(assert 
   (= rs2_var!8 %603))
(assert 
   (=
     %604
     (bvlshr %601 #b0000000000000000000000000000000000000000000000000000000000000011)))
(assert 
   (=
     %605
     ((_ extract 52 0) %604)))
(assert 
   (= mem_index!10 %605))
(assert 
   (=
     %606
     ((_ extract 2 0) %601)))
(assert 
   (=
     %607
     (ite
       (= %606 #b000)
       #b1
       #b0)))
(assert 
   (=
     %560
     ((_ extract 7 0) %555)))
(assert 
   (=
     %561
     ((_ extract 63 8) %556)))
(assert 
   (=
     %559
     (concat %560 %561)))
(assert 
   (= tmp_dword!10 %559))
(assert 
   (=
     %562
     ((_ extract 2 0) %547)))
(assert 
   (=
     %563
     (ite
       (= %562 #b010)
       #b1
       #b0)))
(assert 
   (=
     %536
     ((_ extract 39 0) %511)))
(assert 
   (=
     %537
     ((_ extract 63 40) %512)))
(assert 
   (=
     %535
     (concat %536 %537)))
(assert 
   (= tmp_dword!15 %535))
(assert 
   (=
     %538
     ((_ extract 2 0) %503)))
(assert 
   (=
     %539
     (ite
       (= %538 #b110)
       #b1
       #b0)))
(assert 
   (=
     %565
     ((_ extract 15 0) %555)))
(assert 
   (=
     %566
     ((_ extract 63 16) %556)))
(assert 
   (=
     %564
     (concat %565 %566)))
(assert 
   (= tmp_dword!9 %564))
(assert 
   (=
     %567
     ((_ extract 2 0) %547)))
(assert 
   (=
     %568
     (ite
       (= %567 #b011)
       #b1
       #b0)))
(assert 
   (=
     %541
     ((_ extract 47 0) %511)))
(assert 
   (=
     %542
     ((_ extract 63 48) %512)))
(assert 
   (=
     %540
     (concat %541 %542)))
(assert 
   (= tmp_dword!13 %540))
(assert 
   (=
     %544
     ((_ extract 55 0) %511)))
(assert 
   (=
     %545
     ((_ extract 63 56) %512)))
(assert 
   (=
     %543
     (concat %544 %545)))
(assert 
   (= tmp_dword!14 %543))
(assert 
   (=
     %570
     ((_ extract 23 0) %555)))
(assert 
   (=
     %571
     ((_ extract 63 24) %556)))
(assert 
   (=
     %569
     (concat %570 %571)))
(assert 
   (= tmp_dword!8 %569))
(assert 
   (=
     %572
     ((_ extract 2 0) %547)))
(assert 
   (=
     %573
     (ite
       (= %572 #b100)
       #b1
       #b0)))
(assert 
   (=
     %575
     ((_ extract 31 0) %555)))
(assert 
   (=
     %576
     ((_ extract 63 32) %556)))
(assert 
   (=
     %574
     (concat %575 %576)))
(assert 
   (= tmp_dword!7 %574))
(assert 
   (=
     %577
     ((_ extract 2 0) %547)))
(assert 
   (=
     %578
     (ite
       (= %577 #b101)
       #b1
       #b0)))
(assert 
   (=
     %580
     ((_ extract 39 0) %555)))
(assert 
   (=
     %581
     ((_ extract 63 40) %556)))
(assert 
   (=
     %579
     (concat %580 %581)))
(assert 
   (= tmp_dword!4 %579))
(assert 
   (=
     %582
     ((_ extract 2 0) %547)))
(assert 
   (=
     %583
     (ite
       (= %582 #b110)
       #b1
       #b0)))
(assert 
   (=
     %585
     ((_ extract 47 0) %555)))
(assert 
   (=
     %586
     ((_ extract 63 48) %556)))
(assert 
   (=
     %584
     (concat %585 %586)))
(assert 
   (= tmp_dword!6 %584))
(assert 
   (=
     %588
     ((_ extract 55 0) %555)))
(assert 
   (=
     %589
     ((_ extract 63 56) %556)))
(assert 
   (=
     %587
     (concat %588 %589)))
(assert 
   (= tmp_dword!5 %587))
(assert 
   (=
     MEM!21
     (store MEM!19 %605 %603)))
(assert 
   (=
     %608
     (bvadd %605 #b00000000000000000000000000000000000000000000000000001)))
(assert 
   (=
     %609
     (select MEM!19 %608)))
(assert 
   (= tmp_dword1!48 %609))
(assert 
   (=
     %610
     (select MEM!19 %605)))
(assert 
   (= tmp_dword2!48 %610))
(assert 
   (=
     %611
     ((_ extract 2 0) %601)))
(assert 
   (=
     %612
     (ite
       (= %611 #b001)
       #b1
       #b0)))
(assert 
   (=
     MEM!20
     (ite
       (= %607 #b1)
       MEM!21
       MEM!23)))
(assert 
   (=
     tmp_dword2!47
     (ite
       (= %607 #b1)
       tmp_dword2!46
       tmp_dword2!50)))
(assert 
   (=
     tmp_dword1!47
     (ite
       (= %607 #b1)
       tmp_dword1!46
       tmp_dword1!50)))
(assert 
   (=
     %600
     (bvadd PC!98 #b0000000000000000000000000000000000000000000000000000000000000100)))
(assert 
   (= PC!100 %600))
(assert 
   (= PC!101 %600))
(assert 
   (= PC!102 PC!101))
(assert 
   (=
     XREG!57
     (store XREG!56 #b00000 #b0000000000000000000000000000000000000000000000000000000000000000)))
(assert 
   (= prev_pc!36 PC!101))
(assert 
   (=
     %712
     (select XREG!57 #b01101)))
(assert 
   (=
     %713
     (select XREG!57 #b01011)))
(assert 
   (=
     %710
     (ite
       (bvult %712 %713)
       #b1
       #b0)))
(assert 
   (=
     %613
     (bvlshr %603 #b0000000000000000000000000000000000000000000000000000000000111000)))
(assert 
   (=
     %614
     ((_ extract 7 0) %613)))
(assert 
   (=
     %616
     ((_ zero_extend 56) %614)))
(assert 
   (=
     %617
     (bvand %609 #b1111111111111111111111111111111111111111111111111111111100000000)))
(assert 
   (=
     %618
     (bvshl %616 #b0000000000000000000000000000000000000000000000000000000000000000)))
(assert 
   (=
     %615
     (bvor %617 %618)))
(assert 
   (= tmp_dword1!49 %615))
(assert 
   (=
     %619
     (bvlshr %603 #b0000000000000000000000000000000000000000000000000000000000000000)))
(assert 
   (=
     %620
     ((_ extract 55 0) %619)))
(assert 
   (=
     %622
     ((_ zero_extend 8) %620)))
(assert 
   (=
     %623
     (bvand %610 #b0000000000000000000000000000000000000000000000000000000011111111)))
(assert 
   (=
     %624
     (bvshl %622 #b0000000000000000000000000000000000000000000000000000000000001000)))
(assert 
   (=
     %621
     (bvor %623 %624)))
(assert 
   (= tmp_dword2!49 %621))
(assert 
   (=
     %625
     ((_ extract 2 0) %601)))
(assert 
   (=
     %626
     (ite
       (= %625 #b010)
       #b1
       #b0)))
(assert 
   (=
     tmp_dword2!50
     (ite
       (= %612 #b1)
       %621
       (ite
         (= %626 #b1)
         %635
         (ite
           (= %640 #b1)
           %649
           (ite
             (= %654 #b1)
             %663
             (ite
               (= %668 #b1)
               %677
               (ite
                 (= %682 #b1)
                 %691
                 %703))))))))
(assert 
   (=
     tmp_dword1!50
     (ite
       (= %612 #b1)
       %615
       (ite
         (= %626 #b1)
         %629
         (ite
           (= %640 #b1)
           %643
           (ite
             (= %654 #b1)
             %657
             (ite
               (= %668 #b1)
               %671
               (ite
                 (= %682 #b1)
                 %685
                 %697))))))))
(assert 
   (=
     %707
     (bvadd %605 #b00000000000000000000000000000000000000000000000000001)))
(assert 
   (=
     MEM!22
     (store MEM!19 %707 tmp_dword1!50)))
(assert 
   (=
     MEM!23
     (store MEM!22 %605 tmp_dword2!50)))
(assert 
   (=
     %627
     (bvlshr %603 #b0000000000000000000000000000000000000000000000000000000000110000)))
(assert 
   (=
     %628
     ((_ extract 15 0) %627)))
(assert 
   (=
     %630
     ((_ zero_extend 48) %628)))
(assert 
   (=
     %631
     (bvand %609 #b1111111111111111111111111111111111111111111111110000000000000000)))
(assert 
   (=
     %632
     (bvshl %630 #b0000000000000000000000000000000000000000000000000000000000000000)))
(assert 
   (=
     %629
     (bvor %631 %632)))
(assert 
   (= tmp_dword1!56 %629))
(assert 
   (=
     %633
     (bvlshr %603 #b0000000000000000000000000000000000000000000000000000000000000000)))
(assert 
   (=
     %634
     ((_ extract 47 0) %633)))
(assert 
   (=
     %636
     ((_ zero_extend 16) %634)))
(assert 
   (=
     %637
     (bvand %610 #b0000000000000000000000000000000000000000000000001111111111111111)))
(assert 
   (=
     %638
     (bvshl %636 #b0000000000000000000000000000000000000000000000000000000000010000)))
(assert 
   (=
     %635
     (bvor %637 %638)))
(assert 
   (= tmp_dword2!56 %635))
(assert 
   (=
     %639
     ((_ extract 2 0) %601)))
(assert 
   (=
     %640
     (ite
       (= %639 #b011)
       #b1
       #b0)))
(assert 
   (=
     %641
     (bvlshr %603 #b0000000000000000000000000000000000000000000000000000000000101000)))
(assert 
   (=
     %642
     ((_ extract 23 0) %641)))
(assert 
   (=
     %644
     ((_ zero_extend 40) %642)))
(assert 
   (=
     %645
     (bvand %609 #b1111111111111111111111111111111111111111000000000000000000000000)))
(assert 
   (=
     %646
     (bvshl %644 #b0000000000000000000000000000000000000000000000000000000000000000)))
(assert 
   (=
     %643
     (bvor %645 %646)))
(assert 
   (= tmp_dword1!55 %643))
(assert 
   (=
     %647
     (bvlshr %603 #b0000000000000000000000000000000000000000000000000000000000000000)))
(assert 
   (=
     %648
     ((_ extract 39 0) %647)))
(assert 
   (=
     %650
     ((_ zero_extend 24) %648)))
(assert 
   (=
     %651
     (bvand %610 #b0000000000000000000000000000000000000000111111111111111111111111)))
(assert 
   (=
     %652
     (bvshl %650 #b0000000000000000000000000000000000000000000000000000000000011000)))
(assert 
   (=
     %649
     (bvor %651 %652)))
(assert 
   (= tmp_dword2!55 %649))
(assert 
   (=
     %653
     ((_ extract 2 0) %601)))
(assert 
   (=
     %654
     (ite
       (= %653 #b100)
       #b1
       #b0)))
(assert 
   (=
     %711
     (bvadd PC!101 #b1111111111111111111111111111111111111111111111111111111111101000)))
(assert 
   (= PC!103 %711))
(assert 
   (=
     %655
     (bvlshr %603 #b0000000000000000000000000000000000000000000000000000000000100000)))
(assert 
   (=
     %656
     ((_ extract 31 0) %655)))
(assert 
   (=
     %658
     ((_ zero_extend 32) %656)))
(assert 
   (=
     %659
     (bvand %609 #b1111111111111111111111111111111100000000000000000000000000000000)))
(assert 
   (=
     %660
     (bvshl %658 #b0000000000000000000000000000000000000000000000000000000000000000)))
(assert 
   (=
     %657
     (bvor %659 %660)))
(assert 
   (= tmp_dword1!54 %657))
(assert 
   (=
     %661
     (bvlshr %603 #b0000000000000000000000000000000000000000000000000000000000000000)))
(assert 
   (=
     %662
     ((_ extract 31 0) %661)))
(assert 
   (=
     %664
     ((_ zero_extend 32) %662)))
(assert 
   (=
     %665
     (bvand %610 #b0000000000000000000000000000000011111111111111111111111111111111)))
(assert 
   (=
     %666
     (bvshl %664 #b0000000000000000000000000000000000000000000000000000000000100000)))
(assert 
   (=
     %663
     (bvor %665 %666)))
(assert 
   (= tmp_dword2!54 %663))
(assert 
   (=
     %667
     ((_ extract 2 0) %601)))
(assert 
   (=
     %668
     (ite
       (= %667 #b101)
       #b1
       #b0)))
(assert 
   (=
     PC!104
     (ite
       (= %710 #b1)
       %711
       PC!101)))
(assert 
   (=
     %708
     (ite
       (= PC!104 PC!101)
       #b1
       #b0)))
(assert 
   (=
     %669
     (bvlshr %603 #b0000000000000000000000000000000000000000000000000000000000011000)))
(assert 
   (=
     %670
     ((_ extract 39 0) %669)))
(assert 
   (=
     %672
     ((_ zero_extend 24) %670)))
(assert 
   (=
     %673
     (bvand %609 #b1111111111111111111111110000000000000000000000000000000000000000)))
(assert 
   (=
     %674
     (bvshl %672 #b0000000000000000000000000000000000000000000000000000000000000000)))
(assert 
   (=
     %671
     (bvor %673 %674)))
(assert 
   (= tmp_dword1!51 %671))
(assert 
   (=
     %675
     (bvlshr %603 #b0000000000000000000000000000000000000000000000000000000000000000)))
(assert 
   (=
     %676
     ((_ extract 23 0) %675)))
(assert 
   (=
     %678
     ((_ zero_extend 40) %676)))
(assert 
   (=
     %679
     (bvand %610 #b0000000000000000000000001111111111111111111111111111111111111111)))
(assert 
   (=
     %680
     (bvshl %678 #b0000000000000000000000000000000000000000000000000000000000101000)))
(assert 
   (=
     %677
     (bvor %679 %680)))
(assert 
   (= tmp_dword2!51 %677))
(assert 
   (=
     %681
     ((_ extract 2 0) %601)))
(assert 
   (=
     %682
     (ite
       (= %681 #b110)
       #b1
       #b0)))
(assert 
   (=
     %709
     (bvadd PC!104 #b0000000000000000000000000000000000000000000000000000000000000100)))
(assert 
   (= PC!108 %709))
(assert 
   (=
     %683
     (bvlshr %603 #b0000000000000000000000000000000000000000000000000000000000010000)))
(assert 
   (=
     %684
     ((_ extract 47 0) %683)))
(assert 
   (=
     %686
     ((_ zero_extend 16) %684)))
(assert 
   (=
     %687
     (bvand %609 #b1111111111111111000000000000000000000000000000000000000000000000)))
(assert 
   (=
     %688
     (bvshl %686 #b0000000000000000000000000000000000000000000000000000000000000000)))
(assert 
   (=
     %685
     (bvor %687 %688)))
(assert 
   (= tmp_dword1!53 %685))
(assert 
   (=
     %689
     (bvlshr %603 #b0000000000000000000000000000000000000000000000000000000000000000)))
(assert 
   (=
     %690
     ((_ extract 15 0) %689)))
(assert 
   (=
     %692
     ((_ zero_extend 48) %690)))
(assert 
   (=
     %693
     (bvand %610 #b0000000000000000111111111111111111111111111111111111111111111111)))
(assert 
   (=
     %694
     (bvshl %692 #b0000000000000000000000000000000000000000000000000000000000110000)))
(assert 
   (=
     %691
     (bvor %693 %694)))
(assert 
   (= tmp_dword2!53 %691))
(assert 
   (=
     %695
     (bvlshr %603 #b0000000000000000000000000000000000000000000000000000000000001000)))
(assert 
   (=
     %696
     ((_ extract 55 0) %695)))
(assert 
   (=
     %698
     ((_ zero_extend 8) %696)))
(assert 
   (=
     %699
     (bvand %609 #b1111111100000000000000000000000000000000000000000000000000000000)))
(assert 
   (=
     %700
     (bvshl %698 #b0000000000000000000000000000000000000000000000000000000000000000)))
(assert 
   (=
     %697
     (bvor %699 %700)))
(assert 
   (= tmp_dword1!52 %697))
(assert 
   (=
     %701
     (bvlshr %603 #b0000000000000000000000000000000000000000000000000000000000000000)))
(assert 
   (=
     %702
     ((_ extract 7 0) %701)))
(assert 
   (=
     %704
     ((_ zero_extend 56) %702)))
(assert 
   (=
     %705
     (bvand %610 #b0000000011111111111111111111111111111111111111111111111111111111)))
(assert 
   (=
     %706
     (bvshl %704 #b0000000000000000000000000000000000000000000000000000000000111000)))
(assert 
   (=
     %703
     (bvor %705 %706)))
(assert 
   (= tmp_dword2!52 %703))
(assert 
   (=
     PC!105
     (ite
       (= %710 #b1)
       %711
       %709)))
(assert 
   (= PC!106 PC!105))
(assert 
   (= PC!107 PC!105))
(check-sat)
(get-value (
  %701
  %700
  %703
  %702
  %705
  %704
  %707
  %706
  %709
  %708
  tmp_dword!19
  tmp_dword!18
  tmp_dword!17
  tmp_dword!16
  tmp_dword!2
  %710
  %712
  %711
  %713
  tmp_dword!9
  tmp_dword!8
  tmp_dword!7
  tmp_dword!6
  tmp_dword!5
  tmp_dword!4
  tmp_dword!3
  tmp_dword1!57
  tmp_dword1!53
  tmp_dword1!54
  tmp_dword1!55
  tmp_dword1!56
  tmp_dword1!50
  tmp_dword1!51
  tmp_dword1!52
  %600
  %602
  %601
  %604
  %603
  %606
  %605
  %608
  %607
  %609
  tmp_dword1!46
  tmp_dword1!47
  tmp_dword1!48
  tmp_dword1!49
  tmp_dword1!43
  tmp_dword1!44
  tmp_dword1!45
  %611
  PC!110
  %610
  %613
  %612
  %615
  %614
  %617
  %616
  PC!88
  %619
  PC!89
  %618
  PC!86
  PC!87
  PC!91
  %622
  PC!92
  %621
  %503
  %624
  %502
  PC!90
  %623
  %505
  %626
  %504
  %625
  %507
  %628
  %506
  %627
  %509
  PC!99
  %508
  %629
  PC!97
  PC!98
  PC!95
  PC!96
  PC!93
  PC!94
  %620
  %512
  %633
  %511
  %632
  %514
  %635
  %513
  %634
  %516
  %637
  %515
  %636
  %518
  %639
  %517
  %638
  %519
  %510
  %631
  %630
  %523
  PC!100
  %644
  %522
  %643
  %525
  %646
  %524
  %645
  %527
  %648
  PC!104
  %526
  %647
  PC!103
  %529
  PC!102
  %528
  PC!101
  %649
  PC!108
  PC!107
  PC!106
  PC!105
  PC!109
  %640
  %521
  %642
  %520
  %641
  %534
  %655
  %533
  %654
  %536
  %657
  %535
  %656
  %538
  %659
  %537
  %658
  %539
  XREG!56
  MEM!23
  XREG!57
  MEM!22
  XREG!54
  XREG!55
  %530
  XREG!52
  %651
  XREG!53
  %650
  %532
  XREG!50
  MEM!21
  %653
  %531
  XREG!51
  MEM!20
  %652
  %545
  %666
  %544
  %665
  %547
  %668
  %546
  %667
  %549
  mem_index!10
  %548
  %669
  XREG!49
  XREG!47
  XREG!48
  XREG!45
  XREG!46
  %660
  %541
  %662
  %540
  %661
  %543
  %664
  %542
  %663
  %556
  %677
  %555
  %676
  %558
  %679
  %557
  %678
  %559
  prev_pc!30
  %550
  %671
  %670
  %552
  %673
  %551
  %672
  %554
  %675
  %553
  %674
  %567
  prev_pc!36
  %688
  MEM!19
  prev_pc!35
  %566
  %687
  %569
  %568
  %689
  prev_pc!32
  prev_pc!31
  prev_pc!34
  prev_pc!33
  tmp_address!8
  tmp_address!9
  %680
  tmp_address!10
  %561
  %682
  %560
  %681
  %563
  %684
  %562
  %683
  %565
  %686
  %564
  %685
  %578
  %699
  %577
  %698
  %579
  rs2_var!8
  tmp_dword2!48
  tmp_dword2!47
  tmp_dword2!49
  tmp_dword2!44
  %570
  %691
  tmp_dword2!43
  %690
  tmp_dword2!46
  %572
  %693
  tmp_dword2!45
  %571
  %692
  %574
  %695
  %573
  %694
  %576
  %697
  %575
  %696
  %589
  %588
  rd_var!3
  rd_var!2
  %581
  %580
  %583
  %582
  %585
  %584
  %587
  %586
  mem_index!9
  tmp_dword!15
  %599
  tmp_dword!14
  tmp_dword!13
  tmp_dword!12
  tmp_dword!11
  tmp_dword!10
  %590
  %592
  %591
  %594
  %593
  %596
  %595
  %598
  %597
  tmp_dword2!55
  tmp_dword2!54
  tmp_dword2!57
  tmp_dword2!56
  tmp_dword2!51
  tmp_dword2!50
  tmp_dword2!53
  mem_index!8
  tmp_dword2!52
  ))
(get-model)
(exit)
